
Gurobi 10.0.3 (linux64, gurobi_cl) logging started Thu Nov  9 11:47:27 2023

Set parameter Username
Set parameter TimeLimit to value 3600
Set parameter LogFile to value "RCPSP_1123.log"
Set parameter Threads to value 32
Academic license - for non-commercial use only - expires 2024-11-06
Using license file /home/jrivera6/gurobi-licenses/v1003/compute-0-36/gurobi.lic

Gurobi Optimizer version 10.0.3 build v10.0.3rc0 (linux64)
Copyright (c) 2023, Gurobi Optimization, LLC

Read MPS format model from file RCPSP_1123.mps
Reading time = 0.05 seconds
RCPSP_1123: 42947 rows, 17020 columns, 134581 nonzeros

CPU model: Intel(R) Xeon(R) Gold 6130 CPU @ 2.10GHz, instruction set [SSE2|AVX|AVX2|AVX512]
Thread count: 32 physical cores, 32 logical processors, using up to 32 threads

Optimize a model with 42947 rows, 17020 columns and 134581 nonzeros
Model fingerprint: 0x475694ec
Variable types: 92 continuous, 16928 integer (16928 binary)
Coefficient statistics:
  Matrix range     [1e+00, 5e+02]
  Objective range  [1e+00, 1e+00]
  Bounds range     [1e+00, 1e+00]
  RHS range        [1e+00, 5e+02]
Presolve removed 7914 rows and 1579 columns (presolve time = 5s) ...
Presolve removed 11856 rows and 3064 columns
Presolve time: 6.65s
Presolved: 31091 rows, 13956 columns, 101456 nonzeros
Variable types: 91 continuous, 13865 integer (13865 binary)

Deterministic concurrent LP optimizer: primal and dual simplex (primal and dual model)
Showing first log only...

Root relaxation presolved: 31091 rows, 13956 columns, 101456 nonzeros


Root simplex log...

Iteration    Objective       Primal Inf.    Dual Inf.      Time
       0    8.6102054e+01   5.382828e-03   2.171504e+08      8s
    2040    8.6000000e+01   0.000000e+00   0.000000e+00      8s
Concurrent spin time: 0.42s

Solved with dual simplex (primal model)

Root relaxation: objective 8.600000e+01, 4260 iterations, 1.51 seconds (0.10 work units)
Total elapsed time = 10.58s
Total elapsed time = 15.26s

    Nodes    |    Current Node    |     Objective Bounds      |     Work
 Expl Unexpl |  Obj  Depth IntInf | Incumbent    BestBd   Gap | It/Node Time

     0     0   86.00000    0   93          -   86.00000      -     -   15s
     0     0   86.00000    0  601          -   86.00000      -     -   38s
     0     0   86.00000    0  549          -   86.00000      -     -   39s
     0     0   86.00000    0  542          -   86.00000      -     -   41s
     0     0   86.00000    0  643          -   86.00000      -     -   42s
     0     0   86.00000    0  461          -   86.00000      -     -   44s
     0     0   86.50000    0  239          -   86.50000      -     -   59s
     0     0   86.50000    0  238          -   86.50000      -     -   59s
     0     0   86.50000    0  360          -   86.50000      -     -   64s
     0     0   86.80000    0  648          -   86.80000      -     -   69s
     0     0   86.80000    0  646          -   86.80000      -     -   69s
     0     0   86.80000    0  632          -   86.80000      -     -   71s
     0     0   86.80000    0  630          -   86.80000      -     -   72s
     0     0   87.00001    0 1176          -   87.00001      -     -   82s
     0     0   87.00001    0 1154          -   87.00001      -     -   82s
     0     0   87.00001    0 1064          -   87.00001      -     -   90s
     0     0   87.00001    0 1018          -   87.00001      -     -   91s
     0     0   87.00001    0 1018          -   87.00001      -     -   91s
     0     0   87.00001    0 1016          -   87.00001      -     -   91s
     0     0   87.00001    0 1225          -   87.00001      -     -  105s
     0     0   87.00001    0 1061          -   87.00001      -     -  106s
     0     0   87.00001    0 1039          -   87.00001      -     -  106s
     0     0   87.00001    0 1140          -   87.00001      -     -  109s
     0     0   87.00001    0 1103          -   87.00001      -     -  109s
H    0     0                     502.0000000   87.00001  82.7%     -  110s
     0     0   87.00001    0 1084  502.00000   87.00001  82.7%     -  110s
     0     0   87.00001    0   21  502.00000   87.00001  82.7%     -  157s
     0     0   87.00001    0  198  502.00000   87.00001  82.7%     -  160s
     0     0   87.00001    0  561  502.00000   87.00001  82.7%     -  170s
     0     0   87.00917    0  150  502.00000   87.00917  82.7%     -  184s
H    0     0                     428.0000000   87.00917  79.7%     -  191s
H    0     0                     388.0000000   87.00917  77.6%     -  191s
     0     0   87.00917    0  198  388.00000   87.00917  77.6%     -  191s
     0     0   87.00917    0  352  388.00000   87.00917  77.6%     -  194s
H    0     0                     350.0000000   87.00917  75.1%     -  204s
     0     0   87.00917    0  526  350.00000   87.00917  75.1%     -  204s
     0     0   87.00975    0  497  350.00000   87.00975  75.1%     -  209s
     0     0   87.00975    0  488  350.00000   87.00975  75.1%     -  209s
     0     0   87.00975    0  474  350.00000   87.00975  75.1%     -  219s
     0     0   87.03509    0  645  350.00000   87.03509  75.1%     -  222s
     0     0   87.03509    0  642  350.00000   87.03509  75.1%     -  223s
     0     0   87.03509    0  723  350.00000   87.03509  75.1%     -  225s
     0     0   87.03509    0  797  350.00000   87.03509  75.1%     -  226s
     0     0   87.03509    0  793  350.00000   87.03509  75.1%     -  226s
     0     0   87.43132    0  666  350.00000   87.43132  75.0%     -  227s
     0     0   87.43132    0   40  350.00000   87.43132  75.0%     -  235s
     0     0   87.43132    0  333  350.00000   87.43132  75.0%     -  236s
     0     0   87.45910    0  630  350.00000   87.45910  75.0%     -  239s
     0     0   87.45910    0  620  350.00000   87.45910  75.0%     -  239s
     0     0   87.45910    0  639  350.00000   87.45910  75.0%     -  242s
     0     0   87.45910    0  624  350.00000   87.45910  75.0%     -  242s
     0     0   87.45910    0  622  350.00000   87.45910  75.0%     -  242s
     0     0   87.45910    0  542  350.00000   87.45910  75.0%     -  245s
     0     0   87.45910    0  423  350.00000   87.45910  75.0%     -  247s
     0     0   87.45910    0  202  350.00000   87.45910  75.0%     -  255s
     0     0   87.45910    0  569  350.00000   87.45910  75.0%     -  258s
     0     0   87.45910    0   87  350.00000   87.45910  75.0%     -  265s
     0     0   87.45910    0  124  350.00000   87.45910  75.0%     -  265s
     0     0   87.45910    0   62  350.00000   87.45910  75.0%     -  268s
H    0     0                     313.0000000   87.45910  72.1%     -  271s
     0     0   87.45910    0  501  313.00000   87.45910  72.1%     -  272s
     0     0   87.45910    0   49  313.00000   87.45910  72.1%     -  275s
     0     0   87.45910    0  212  313.00000   87.45910  72.1%     -  275s
H    0     0                     307.0000000   87.45910  71.5%     -  281s
     0     0   87.50459    0   90  307.00000   87.50459  71.5%     -  281s
     0     0   87.50459    0   90  307.00000   87.50459  71.5%     -  281s
     0     0   87.50459    0  462  307.00000   87.50459  71.5%     -  285s
     0     0   87.50459    0  494  307.00000   87.50459  71.5%     -  288s
     0     0   87.50459    0  405  307.00000   87.50459  71.5%     -  288s
     0     0   87.50459    0  555  307.00000   87.50459  71.5%     -  292s
     0     0   87.50459    0  454  307.00000   87.50459  71.5%     -  298s
     0     0   87.50459    0  441  307.00000   87.50459  71.5%     -  298s
     0     0   87.50459    0  696  307.00000   87.50459  71.5%     -  299s
     0     0   87.50459    0  542  307.00000   87.50459  71.5%     -  300s
     0     0   87.50459    0  361  307.00000   87.50459  71.5%     -  310s
     0     0   87.50459    0  127  307.00000   87.50459  71.5%     -  315s
H    0     0                     269.0000000   87.50459  67.5%     -  318s
     0     2   87.50459    0   41  269.00000   87.50459  67.5%     -  328s
     1     4   87.75172    1   89  269.00000   87.75172  67.4%  1339  334s
     3     7   88.00000    2  406  269.00000   88.00000  67.3%   812  347s
     7    13   91.00000    3  404  269.00000   88.00000  67.3%   858  358s
    14    23   91.00000    4  364  269.00000   88.00000  67.3%   719  370s
H   27    34                     259.0000000   88.00000  66.0%   723  477s
H   28    34                     258.0000000   88.00000  65.9%   727  477s
H   29    34                     247.0000000   88.00000  64.4%   760  477s
H   32    34                     244.0000000   88.00000  63.9%   774  477s
H   37    34                     240.0000000   88.00000  63.3%   754  477s
H   46    34                     236.0000000   88.00000  62.7%   736  477s
    50    58   91.00000    6  432  236.00000   88.00000  62.7%   762  490s
    82    83   91.00000    7  374  236.00000   88.00000  62.7%   634  502s
   114   112   91.00000    8  357  236.00000   88.00000  62.7%   572  511s
   146   135   91.00000    9  356  236.00000   88.00000  62.7%   473  519s
   178   177   91.00000   10  346  236.00000   88.00000  62.7%   418  526s
   227   207   91.00000   11  344  236.00000   88.00000  62.7%   343 1117s
H  228   207                      99.0000000   88.00000  11.1%   342 1464s
   231   207   88.02857   12  207   99.00000   88.00000  11.1%   337 1506s
   259   223   91.00000   12  343   99.00000   88.00000  11.1%   307 4078s

Cutting planes:
  Learned: 1
  Gomory: 9
  Cover: 138
  Implied bound: 815
  Clique: 2
  MIR: 1495
  StrongCG: 38
  Inf proof: 2
  Zero half: 3
  Mod-K: 2
  RLT: 829
  Relax-and-lift: 369
  PSD: 1

Explored 312 nodes (223216 simplex iterations) in 4345.78 seconds (66.60 work units)
Thread count was 32 (of 32 available processors)

Solution count 10: 99 236 240 ... 313

Time limit reached
Best objective 9.899999999999e+01, best bound 8.800000000000e+01, gap 11.1111%

Wrote result file 'RCPSP_1123.sol'

